// Dezyne --- Dezyne command line tools
//
// Copyright © 2015 Jan Nieuwenhuizen <janneke@gnu.org>
//
// This file is part of Dezyne.
//
// Dezyne is free software: you can redistribute it and/or modify it
// under the terms of the GNU Affero General Public License as
// published by the Free Software Foundation, either version 3 of the
// License, or (at your option) any later version.
//
// Dezyne is distributed in the hope that it will be useful, but
// WITHOUT ANY WARRANTY; without even the implied warranty of
// MERCHANTABILITY or FITNESS FOR A PARTICULAR PURPOSE.  See the GNU
// Affero General Public License for more details.
//
// You should have received a copy of the GNU Affero General Public
// License along with Dezyne.  If not, see <http://www.gnu.org/licenses/>.
//
// Commentary:
//
// Code:

// /////////////////////////////////////////////////////////////////////////////
// 
// File generated by   : Verum ASD:Suite Release 0, version 0.0.0.0
// Language            : asd
// 
// Model name          : OutParam
// Model file          : OutParam.im
// Model last updated  : 2015-Oct-21 15:44:01
// Model fingerprint   : B508589B
// 
// Version             : 1.0
// Project             : 
// Author              : 
// Execution model     : Multi-threaded
// Broadcasting        : No
// 
// /////////////////////////////////////////////////////////////////////////////


import IOutParam.dzn;

component OutParam
{
  provides IOutParam outParam;
}
